Version identifier: 22.1.1.0 | 2022-11-28 | 9160aff4d
CPXPARAM_ClockType                               1
CPXPARAM_Read_DataCheck                          1
CPXPARAM_Threads                                 1
CPXPARAM_TimeLimit                               7200
CPXPARAM_MIP_Tolerances_AbsMIPGap                0
CPXPARAM_MIP_Tolerances_MIPGap                   0
CPXPARAM_MIP_Tolerances_Integrality              0
Found incumbent of value 0.000000 after 0.00 sec. (1.41 ticks)
Tried aggregator 1 time.
MIP Presolve eliminated 1717 rows and 9 columns.
MIP Presolve modified 938 coefficients.
Reduced MIP has 8074 rows, 4491 columns, and 28296 nonzeros.
Reduced MIP has 4491 binaries, 0 generals, 0 SOSs, and 0 indicators.
Presolve time = 0.03 sec. (18.84 ticks)
Probing time = 0.01 sec. (4.14 ticks)
Tried aggregator 1 time.
Detecting symmetries...
MIP Presolve eliminated 500 rows and 0 columns.
Reduced MIP has 7574 rows, 4491 columns, and 26796 nonzeros.
Reduced MIP has 4491 binaries, 0 generals, 0 SOSs, and 0 indicators.
Presolve time = 0.03 sec. (21.92 ticks)
Probing time = 0.01 sec. (3.45 ticks)
Clique table members: 16240.
MIP emphasis: balance optimality and feasibility.
MIP search method: dynamic search.
Parallel mode: none, using 1 thread.
Root relaxation solution time = 1.40 sec. (1143.71 ticks)

        Nodes                                         Cuts/
   Node  Left     Objective  IInf  Best Integer    Best Bound    ItCnt     Gap

*     0+    0                            0.0000    24750.0000              --- 
      0     0     3300.0000  1325        0.0000     3300.0000     4437     --- 
      0     0     3300.0000  1177        0.0000     Cuts: 101     6535     --- 
      0     0     3300.0000  1314        0.0000     Cuts: 139     9231     --- 
      0     0     3300.0000  1171        0.0000      Cuts: 21    10180     --- 
      0     0     3300.0000  1247        0.0000     Cuts: 156    11908     --- 
Detecting symmetries...
      0     2     3300.0000  1171        0.0000     3300.0000    11908     --- 
Elapsed time = 11.79 sec. (8886.84 ticks, tree = 0.01 MB, solutions = 1)
      2     4     3300.0000  1159        0.0000     3300.0000    15724     --- 
      3     5     3300.0000  1075        0.0000     3300.0000    19623     --- 
      5     7     3300.0000  1009        0.0000     3300.0000    34467     --- 
      6     8     3300.0000  1172        0.0000     3300.0000    46949     --- 
      7     9     3300.0000   909        0.0000     3300.0000    59080     --- 
      8    10     3300.0000   741        0.0000     3300.0000    66683     --- 
     10    12     3300.0000   728        0.0000     3300.0000    70769     --- 
     11    13     3300.0000   796        0.0000     3300.0000    77525     --- 
     13    15     3300.0000   633        0.0000     3300.0000    78427     --- 
     19    21     3300.0000   518        0.0000     3300.0000    81388     --- 
Elapsed time = 34.07 sec. (27026.40 ticks, tree = 0.52 MB, solutions = 1)
     23    25     3300.0000   908        0.0000     3300.0000    85097     --- 
     24    26     3300.0000   532        0.0000     3300.0000    89070     --- 
     25    27     3291.2857  1159        0.0000     3300.0000    95826     --- 
     26    28     3291.2857  1166        0.0000     3300.0000    99762     --- 
     29    31     3290.2857  1144        0.0000     3300.0000   102883     --- 
     34    36     3274.0000  1173        0.0000     3300.0000   106543     --- 
     40    40     3288.1429  1096        0.0000     3300.0000   108712     --- 
     50    48    infeasible              0.0000     3300.0000   115226     --- 
     52    50     3285.0000  1094        0.0000     3300.0000   119799     --- 
     55    49     3300.0000   556        0.0000     3300.0000   121274     --- 
Elapsed time = 52.25 sec. (41006.62 ticks, tree = 1.65 MB, solutions = 1)
     57    51     3300.0000   929        0.0000     3300.0000   135615     --- 
     59    53     3300.0000   526        0.0000     3300.0000   138823     --- 
     61    55     3300.0000   664        0.0000     3300.0000   141976     --- 
     62    56     3294.0000  1086        0.0000     3300.0000   146740     --- 
     66    60     3291.2857  1097        0.0000     3300.0000   151036     --- 
     67    61     3291.2857  1229        0.0000     3300.0000   154280     --- 
     70    64     3286.2857  1071        0.0000     3300.0000   157055     --- 
     75    65    infeasible              0.0000     3300.0000   160103     --- 
     85    73     3279.0000  1102        0.0000     3300.0000   162763     --- 
     89    71     3300.0000   699        0.0000     3300.0000   166121     --- 
Elapsed time = 69.52 sec. (55791.38 ticks, tree = 2.70 MB, solutions = 1)
     96    78     3300.0000   467        0.0000     3300.0000   169225     --- 
     98    80     3291.2857  1052        0.0000     3300.0000   173414     --- 
     99    81     3291.2857  1154        0.0000     3300.0000   177249     --- 
    101    83     3286.2857  1037        0.0000     3300.0000   179303     --- 
    104    86     3289.2857  1036        0.0000     3300.0000   182238     --- 
    108    86    infeasible              0.0000     3300.0000   186609     --- 
    109    85    infeasible              0.0000     3300.0000   190178     --- 
    111    85     3300.0000   790        0.0000     3300.0000   193946     --- 
    113    87     3291.2857  1193        0.0000     3300.0000   197875     --- 
    120    94     3288.1429  1145        0.0000     3300.0000   200803     --- 
Elapsed time = 83.24 sec. (67805.12 ticks, tree = 4.10 MB, solutions = 1)
    126    94     3300.0000   537        0.0000     3300.0000   204750     --- 
    129    97     3291.2857  1099        0.0000     3300.0000   208551     --- 
    130    98     3291.2857  1178        0.0000     3300.0000   212366     --- 
    133   101     3271.0000  1164        0.0000     3300.0000   216178     --- 
    144   108     3286.0000   964        0.0000     3300.0000   219017     --- 
    151   111     3300.0000   528        0.0000     3300.0000   222354     --- 
    158   118     3300.0000   895        0.0000     3300.0000   225396     --- 
    164   124     3300.0000  1021        0.0000     3300.0000   227715     --- 
    171   131     3300.0000   958        0.0000     3300.0000   230493     --- 
    175   135     3300.0000   985        0.0000     3300.0000   233326     --- 
Elapsed time = 95.60 sec. (79022.94 ticks, tree = 6.61 MB, solutions = 1)
    180   140     3300.0000   922        0.0000     3300.0000   235139     --- 
    185   145     3300.0000  1016        0.0000     3300.0000   238539     --- 
    193   153     3300.0000   966        0.0000     3300.0000   241639     --- 
    197   157     3300.0000  1059        0.0000     3300.0000   245425     --- 
    200   160     3300.0000  1017        0.0000     3300.0000   247432     --- 
    203   163     3300.0000  1044        0.0000     3300.0000   251169     --- 
    211   171     3300.0000   977        0.0000     3300.0000   254889     --- 
    213   171     3298.2407  1019        0.0000     3300.0000   260297     --- 
    214   172     3298.2308   996        0.0000     3300.0000   265742     --- 
    217   171     3291.2857  1106        0.0000     3300.0000   270335     --- 
Elapsed time = 111.55 sec. (93380.65 ticks, tree = 8.82 MB, solutions = 1)
    220   174     3271.0000  1105        0.0000     3300.0000   273657     --- 
    225   177     3287.0000   997        0.0000     3300.0000   276653     --- 
    232   180     3300.0000   532        0.0000     3300.0000   279718     --- 
    242   190     3300.0000   986        0.0000     3300.0000   282744     --- 
    248   196     3300.0000   874        0.0000     3300.0000   285753     --- 
    259   207     3300.0000  1078        0.0000     3300.0000   288877     --- 
    262   210     3300.0000  1072        0.0000     3300.0000   290091     --- 
    266   214     3300.0000   914        0.0000     3300.0000   293885     --- 
    270   216     3300.0000  1009        0.0000     3300.0000   297194     --- 
    275   217     3300.0000  1078        0.0000     3300.0000   300160     --- 
Elapsed time = 123.29 sec. (103875.25 ticks, tree = 11.63 MB, solutions = 1)
    279   221     3300.0000  1023        0.0000     3300.0000   303331     --- 
    287   229     3300.0000   893        0.0000     3300.0000   306128     --- 
    292   234     3300.0000   898        0.0000     3300.0000   309495     --- 
    298   240     3300.0000   986        0.0000     3300.0000   312732     --- 
    301   243     3300.0000   968        0.0000     3300.0000   315337     --- 
    306   248     3300.0000   972        0.0000     3300.0000   318681     --- 
    309   251     3300.0000   975        0.0000     3300.0000   321574     --- 
    313   255     3300.0000   952        0.0000     3300.0000   324690     --- 
    317   255     3300.0000  1008        0.0000     3300.0000   327852     --- 
    326   264     3300.0000   991        0.0000     3300.0000   330560     --- 
Elapsed time = 134.76 sec. (114557.31 ticks, tree = 14.52 MB, solutions = 1)
    338   276     3300.0000   999        0.0000     3300.0000   334128     --- 
    342   280     3300.0000  1086        0.0000     3300.0000   337528     --- 
    347   283    infeasible              0.0000     3300.0000   340838     --- 
    352   286     3300.0000   973        0.0000     3300.0000   345020     --- 
    355   289     3300.0000  1020        0.0000     3300.0000   348164     --- 
    360   294     3300.0000   890        0.0000     3300.0000   350559     --- 
    365   299     3300.0000   941        0.0000     3300.0000   354109     --- 
    370   304     3300.0000   771        0.0000     3300.0000   357262     --- 
    378   312     3300.0000   932        0.0000     3300.0000   362853     --- 
    380   314     3300.0000   804        0.0000     3300.0000   367613     --- 
Elapsed time = 149.40 sec. (128279.45 ticks, tree = 17.58 MB, solutions = 1)
    383   317     3300.0000   877        0.0000     3300.0000   371709     --- 
    387   321     3300.0000   767        0.0000     3300.0000   374852     --- 
    392   326     3300.0000   763        0.0000     3300.0000   378192     --- 
    399   329     3300.0000   963        0.0000     3300.0000   382193     --- 
    400   330     3300.0000   993        0.0000     3300.0000   382462     --- 
    415   345     3300.0000  1047        0.0000     3300.0000   385209     --- 
    419   349     3300.0000   989        0.0000     3300.0000   389581     --- 
    425   355     3300.0000   953        0.0000     3300.0000   393135     --- 
    432   362     3299.7143   886        0.0000     3300.0000   397033     --- 
    440   366     3300.0000  1123        0.0000     3300.0000   403994     --- 
Elapsed time = 166.59 sec. (143766.89 ticks, tree = 20.77 MB, solutions = 1)
    463   389     3300.0000  1028        0.0000     3300.0000   415576     --- 
    478   398    infeasible              0.0000     3300.0000   427966     --- 
    495   413    infeasible              0.0000     3300.0000   438987     --- 
    503   417    infeasible              0.0000     3300.0000   451211     --- 
    508   420     3291.2857  1154        0.0000     3300.0000   462326     --- 
    522   426     3291.2857  1010        0.0000     3300.0000   475388     --- 
    533   431     3291.2857  1029        0.0000     3300.0000   489264     --- 
    547   439     3291.2857  1034        0.0000     3300.0000   505282     --- 
    559   443     3300.0000   837        0.0000     3300.0000   518772     --- 
    561   445     3291.2857  1100        0.0000     3300.0000   523843     --- 
Elapsed time = 213.75 sec. (184997.67 ticks, tree = 25.54 MB, solutions = 1)
    574   456     3287.0000   925        0.0000     3300.0000   535780     --- 
    593   465     3272.0000  1034        0.0000     3300.0000   550295     --- 
    600   468     3275.0000  1168        0.0000     3300.0000   565379     --- 
    624   484     3297.0000  1145        0.0000     3300.0000   577289     --- 
    641   499     3293.8462  1091        0.0000     3300.0000   589383     --- 
    649   501     3297.0000   942        0.0000     3300.0000   601110     --- 
    661   507     3287.8000  1108        0.0000     3300.0000   613797     --- 
    677   519     3300.0000   862        0.0000     3300.0000   627093     --- 
    691   533     3300.0000   858        0.0000     3300.0000   638681     --- 
    704   546     3300.0000   749        0.0000     3300.0000   651630     --- 
Elapsed time = 261.77 sec. (227207.33 ticks, tree = 31.87 MB, solutions = 1)
    720   558     3300.0000   814        0.0000     3300.0000   662858     --- 
    729   567     3297.0000   980        0.0000     3300.0000   675771     --- 
    734   572     3272.0000   986        0.0000     3300.0000   688567     --- 
    744   578     3287.8000  1062        0.0000     3300.0000   700861     --- 
    764   590     3300.0000   955        0.0000     3300.0000   712550     --- 
    782   608     3300.0000   937        0.0000     3300.0000   725357     --- 
    798   620     3300.0000   780        0.0000     3300.0000   737007     --- 
    808   630     3299.6667  1049        0.0000     3300.0000   744948     --- 
    823   639     3300.0000   470        0.0000     3300.0000   757307     --- 
    841   657     3300.0000   866        0.0000     3300.0000   768434     --- 
Elapsed time = 309.95 sec. (269825.46 ticks, tree = 38.69 MB, solutions = 1)
    853   669     3300.0000  1021        0.0000     3300.0000   782171     --- 
    872   684     3300.0000  1119        0.0000     3300.0000   796771     --- 
    882   694     3300.0000   993        0.0000     3300.0000   809282     --- 
    896   708     3300.0000   706        0.0000     3300.0000   821715     --- 
    903   715     3299.0000   960        0.0000     3300.0000   834888     --- 
    915   723     3300.0000  1050        0.0000     3300.0000   848925     --- 
    931   739     3300.0000  1012        0.0000     3300.0000   861985     --- 
    943   747    infeasible              0.0000     3300.0000   874377     --- 
    957   759     3300.0000  1038        0.0000     3300.0000   886348     --- 
    968   770     3300.0000  1026        0.0000     3300.0000   897289     --- 
Elapsed time = 357.00 sec. (311940.64 ticks, tree = 45.26 MB, solutions = 1)
    981   781     3300.0000   933        0.0000     3300.0000   909631     --- 
    986   786     3299.9879  1205        0.0000     3300.0000   928225     --- 
    996   796     3300.0000  1031        0.0000     3300.0000   940086     --- 
*   999+  797                           60.0000     3300.0000              --- 
*  1000+  798                          494.0000     3300.0000           568.02%
   1001   801     3300.0000  1088      494.0000     3300.0000   946436  568.02%
   1010   806     3300.0000   962      494.0000     3300.0000   960335  568.02%
   1027   823     3298.7500   962      494.0000     3300.0000   972043  568.02%
   1036   828    infeasible            494.0000     3300.0000   984536  568.02%
   1045   837     3300.0000   809      494.0000     3300.0000   990798  568.02%
   1055   847     3296.0000   854      494.0000     3300.0000  1003385  568.02%
   1058   846     3300.0000   964      494.0000     3300.0000  1021718  568.02%
Elapsed time = 518.42 sec. (444505.66 ticks, tree = 49.99 MB, solutions = 3)
   1069   855     3294.5000  1117      494.0000     3300.0000  1035008  568.02%
   1076   856    infeasible            494.0000     3300.0000  1047330  568.02%
   1082   858    infeasible            494.0000     3300.0000  1059373  568.02%
   1087   863     3295.5000  1025      494.0000     3300.0000  1071386  568.02%
   1100   874     3284.5833  1110      494.0000     3300.0000  1085530  568.02%

Performing restart 1

Repeating presolve.
Tried aggregator 1 time.
Reduced MIP has 7574 rows, 4491 columns, and 26796 nonzeros.
Reduced MIP has 4491 binaries, 0 generals, 0 SOSs, and 0 indicators.
Presolve time = 0.02 sec. (14.21 ticks)
Tried aggregator 1 time.
Reduced MIP has 7574 rows, 4491 columns, and 26796 nonzeros.
Reduced MIP has 4491 binaries, 0 generals, 0 SOSs, and 0 indicators.
Presolve time = 0.03 sec. (19.38 ticks)
Represolve time = 0.11 sec. (62.65 ticks)
   1110     0     3300.0000  1208      494.0000      Cuts: 85  1105086  568.02%
   1110     0     3300.0000  1182      494.0000     Cuts: 117  1108450  568.02%
   1110     0     3300.0000   900      494.0000   ZeroHalf: 8  1109913  568.02%
   1110     0     3300.0000  1075      494.0000      Cuts: 95  1111885  568.02%
   1110     0     3300.0000  1027      494.0000  ZeroHalf: 14  1113071  568.02%
   1110     0     3300.0000  1097      494.0000     Cuts: 132  1114579  568.02%
   1110     0     3300.0000   911      494.0000   ZeroHalf: 9  1115237  568.02%
   1110     0     3300.0000   957      494.0000      Cuts: 92  1116638  568.02%
   1110     0     3300.0000   906      494.0000  ZeroHalf: 11  1117233  568.02%
   1110     0     3300.0000  1051      494.0000      Cuts: 80  1118507  568.02%
*  1110+    0                          498.0000     3300.0000           562.65%
   1110     0        cutoff            498.0000     3300.0000  1118507  562.65%
   1110     2     3300.0000  1051      498.0000     3300.0000  1118507  562.65%
   1111     3     3300.0000   946      498.0000     3300.0000  1142412  562.65%
   1114     6     3300.0000   809      498.0000     3300.0000  1156475  562.65%
   1139    25     3288.6667   374      498.0000     3300.0000  1184578  562.65%
*  1150+   22                         3278.0000     3300.0000             0.67%
*  1160+   24                         3288.0000     3300.0000             0.36%
*  1162    25      integral     0     3290.0000     3300.0000  1195783    0.30%
*  1168     2      integral     0     3300.0000     3300.0000  1196516    0.00%

Clique cuts applied:  7
Implied bound cuts applied:  4
Zero-half cuts applied:  50

Root node processing (before b&c):
  Real time             =   11.77 sec. (8878.39 ticks)
Sequential b&c:
  Real time             =  593.15 sec. (500511.98 ticks)
                          ------------
Total (root+branch&cut) =  604.92 sec. (509390.37 ticks)
Solution is feasible.

---------------------
@@@ MIP_optimal
>>> Benchmark flat50-6.cnf k 10 OPT 3300 TimeCost 608.075731754303 TimeSolve 607.2632982730865 TimeRead 0.0019490718841552734 TimeTrans 0.8104844093322754
